\ Model P2E2_ILP
\ LP format - for model browsing. Use MPS format to capture full model detail.
Minimize
  a0 + a1 + a2 + a3 + a4 + a5 + a6 + a7 + a8 + a9 + a10 + a11 + a12 + a13
Subject To
 head_hidden_0: a0 - h0_0 = 0
 rdr_addr_0: b0 - h0_0 = 0
 tail_sync_0_1: - a1 + t0_1 = 0
 tail_sync_0_2: - a2 + t0_2 = 0
 tail_sync_0_0: - a0 + t0_0 = 0
 tail_req_0: - b0 + t0_1 + t0_2 >= 0
 head_hidden_1: a0 - h1_0 = 0
 rdr_addr_1: b1 - h1_0 = 0
 tail_sync_1_3: - a3 + t1_3 = 0
 tail_sync_1_2: - a2 + t1_2 = 0
 tail_sync_1_0: - a0 + t1_0 = 0
 tail_req_1: - b1 + t1_3 + t1_2 >= 0
 head_hidden_2: a0 - h2_0 = 0
 rdr_addr_2: b2 - h2_0 = 0
 tail_sync_2_4: - a4 + t2_4 = 0
 tail_sync_2_5: - a5 + t2_5 = 0
 tail_sync_2_0: - a0 + t2_0 = 0
 tail_req_2: - b2 + t2_4 + t2_5 >= 0
 head_hidden_3: a0 - h3_0 = 0
 rdr_addr_3: b3 - h3_0 = 0
 tail_sync_3_2: - a2 + t3_2 = 0
 tail_sync_3_6: - a6 + t3_6 = 0
 tail_sync_3_0: - a0 + t3_0 = 0
 tail_req_3: - b3 + t3_2 + t3_6 >= 0
 head_hidden_4: a0 - h4_0 = 0
 rdr_addr_4: b4 - h4_0 = 0
 tail_sync_4_3: - a3 + t4_3 = 0
 tail_sync_4_4: - a4 + t4_4 = 0
 tail_sync_4_0: - a0 + t4_0 = 0
 tail_req_4: - b4 + t4_3 + t4_4 >= 0
 head_hidden_5: a0 - h5_0 = 0
 rdr_addr_5: b5 - h5_0 = 0
 tail_sync_5_2: - a2 + t5_2 = 0
 tail_sync_5_5: - a5 + t5_5 = 0
 tail_sync_5_0: - a0 + t5_0 = 0
 tail_req_5: - b5 + t5_2 + t5_5 >= 0
 head_hidden_6: a0 - h6_0 = 0
 rdr_addr_6: b6 - h6_0 = 0
 tail_sync_6_0: - a0 + t6_0 = 0
 tail_sync_6_7: - a7 + t6_7 = 0
 tail_req_6: - b6 + t6_7 >= 0
 head_hidden_7: a0 - h7_0 = 0
 rdr_addr_7: b7 - h7_0 = 0
 tail_sync_7_4: - a4 + t7_4 = 0
 tail_sync_7_6: - a6 + t7_6 = 0
 tail_sync_7_0: - a0 + t7_0 = 0
 tail_req_7: - b7 + t7_4 + t7_6 >= 0
 head_hidden_8: a0 - h8_0 = 0
 rdr_addr_8: b8 - h8_0 = 0
 tail_sync_8_1: - a1 + t8_1 = 0
 tail_sync_8_4: - a4 + t8_4 = 0
 tail_sync_8_0: - a0 + t8_0 = 0
 tail_req_8: - b8 + t8_1 + t8_4 >= 0
 head_hidden_8: a1 - h8_1 = 0
 rdr_addr_8: b0 - h8_1 = 0
 tail_sync_8_1: - a1 + t8_1 = 0
 tail_sync_8_2: - a2 + t8_2 = 0
 tail_sync_8_0: - a0 + t8_0 = 0
 tail_req_8: - b0 + t8_2 + t8_0 >= 0
 head_hidden_9: a1 - h9_1 = 0
 rdr_addr_9: b9 - h9_1 = 0
 tail_sync_9_1: - a1 + t9_1 = 0
 tail_sync_9_4: - a4 + t9_4 = 0
 tail_sync_9_8: - a8 + t9_8 = 0
 tail_req_9: - b9 + t9_4 + t9_8 >= 0
 head_hidden_10: a1 - h10_1 = 0
 rdr_addr_10: b10 - h10_1 = 0
 tail_sync_10_1: - a1 + t10_1 = 0
 tail_sync_10_9: - a9 + t10_9 = 0
 tail_req_10: - b10 + t10_9 >= 0
 head_hidden_11: a1 - h11_1 = 0
 rdr_addr_11: b11 - h11_1 = 0
 tail_sync_11_1: - a1 + t11_1 = 0
 tail_sync_11_10: - a10 + t11_10 = 0
 tail_req_11: - b11 + t11_10 >= 0
 head_hidden_12: a1 - h12_1 = 0
 rdr_addr_12: b12 - h12_1 = 0
 tail_sync_12_1: - a1 + t12_1 = 0
 tail_sync_12_5: - a5 + t12_5 = 0
 tail_req_12: - b12 + t12_5 >= 0
 head_hidden_13: a1 - h13_1 = 0
 rdr_addr_13: b13 - h13_1 = 0
 tail_sync_13_1: - a1 + t13_1 = 0
 tail_sync_13_6: - a6 + t13_6 = 0
 tail_req_13: - b13 + t13_6 >= 0
 head_hidden_14: a1 - h14_1 = 0
 rdr_addr_14: b14 - h14_1 = 0
 tail_sync_14_1: - a1 + t14_1 = 0
 tail_sync_14_2: - a2 + t14_2 = 0
 tail_sync_14_4: - a4 + t14_4 = 0
 tail_req_14: - b14 + t14_2 + t14_4 >= 0
 head_hidden_15: a1 - h15_1 = 0
 rdr_addr_15: b15 - h15_1 = 0
 tail_sync_15_11: - a11 + t15_11 = 0
 tail_sync_15_9: - a9 + t15_9 = 0
 tail_sync_15_1: - a1 + t15_1 = 0
 tail_req_15: - b15 + t15_11 + t15_9 >= 0
 head_hidden_16: a1 - h16_1 = 0
 rdr_addr_16: b16 - h16_1 = 0
 tail_sync_16_1: - a1 + t16_1 = 0
 tail_sync_16_4: - a4 + t16_4 = 0
 tail_req_16: - b16 + t16_4 >= 0
 head_hidden_17: a1 - h17_1 = 0
 rdr_addr_17: b17 - h17_1 = 0
 tail_sync_17_1: - a1 + t17_1 = 0
 tail_sync_17_8: - a8 + t17_8 = 0
 tail_sync_17_9: - a9 + t17_9 = 0
 tail_req_17: - b17 + t17_8 + t17_9 >= 0
 head_hidden_18: a1 - h18_1 = 0
 rdr_addr_18: b18 - h18_1 = 0
 tail_sync_18_1: - a1 + t18_1 = 0
 tail_sync_18_2: - a2 + t18_2 = 0
 tail_sync_18_8: - a8 + t18_8 = 0
 tail_req_18: - b18 + t18_2 + t18_8 >= 0
 head_hidden_19: a1 - h19_1 = 0
 rdr_addr_19: b19 - h19_1 = 0
 tail_sync_19_1: - a1 + t19_1 = 0
 tail_sync_19_12: - a12 + t19_12 = 0
 tail_req_19: - b19 + t19_12 >= 0
 head_hidden_20: a1 - h20_1 = 0
 rdr_addr_20: b20 - h20_1 = 0
 tail_sync_20_3: - a3 + t20_3 = 0
 tail_sync_20_1: - a1 + t20_1 = 0
 tail_req_20: - b20 + t20_3 >= 0
 head_hidden_21: a1 - h21_1 = 0
 rdr_addr_21: b21 - h21_1 = 0
 tail_sync_21_1: - a1 + t21_1 = 0
 tail_sync_21_2: - a2 + t21_2 = 0
 tail_req_21: - b21 + t21_2 >= 0
 head_hidden_21: a1 - h21_1 = 0
 rdr_addr_21: b8 - h21_1 = 0
 tail_sync_21_1: - a1 + t21_1 = 0
 tail_sync_21_4: - a4 + t21_4 = 0
 tail_sync_21_0: - a0 + t21_0 = 0
 tail_req_21: - b8 + t21_4 + t21_0 >= 0
 head_hidden_21: a2 - h21_2 = 0
 rdr_addr_21: b0 - h21_2 = 0
 tail_sync_21_1: - a1 + t21_1 = 0
 tail_sync_21_2: - a2 + t21_2 = 0
 tail_sync_21_0: - a0 + t21_0 = 0
 tail_req_21: - b0 + t21_1 + t21_0 >= 0
 head_hidden_21: a2 - h21_2 = 0
 rdr_addr_21: b1 - h21_2 = 0
 tail_sync_21_3: - a3 + t21_3 = 0
 tail_sync_21_2: - a2 + t21_2 = 0
 tail_sync_21_0: - a0 + t21_0 = 0
 tail_req_21: - b1 + t21_3 + t21_0 >= 0
 head_hidden_22: a2 - h22_2 = 0
 rdr_addr_22: b22 - h22_2 = 0
 tail_sync_22_2: - a2 + t22_2 = 0
 tail_sync_22_4: - a4 + t22_4 = 0
 tail_sync_22_12: - a12 + t22_12 = 0
 tail_req_22: - b22 + t22_4 + t22_12 >= 0
 head_hidden_23: a2 - h23_2 = 0
 rdr_addr_23: b23 - h23_2 = 0
 tail_sync_23_3: - a3 + t23_3 = 0
 tail_sync_23_2: - a2 + t23_2 = 0
 tail_req_23: - b23 + t23_3 >= 0
 head_hidden_24: a2 - h24_2 = 0
 rdr_addr_24: b24 - h24_2 = 0
 tail_sync_24_2: - a2 + t24_2 = 0
 tail_sync_24_6: - a6 + t24_6 = 0
 tail_sync_24_4: - a4 + t24_4 = 0
 tail_req_24: - b24 + t24_6 + t24_4 >= 0
 head_hidden_25: a2 - h25_2 = 0
 rdr_addr_25: b25 - h25_2 = 0
 tail_sync_25_2: - a2 + t25_2 = 0
 tail_sync_25_6: - a6 + t25_6 = 0
 tail_req_25: - b25 + t25_6 >= 0
 head_hidden_26: a2 - h26_2 = 0
 rdr_addr_26: b26 - h26_2 = 0
 tail_sync_26_2: - a2 + t26_2 = 0
 tail_sync_26_12: - a12 + t26_12 = 0
 tail_req_26: - b26 + t26_12 >= 0
 head_hidden_27: a2 - h27_2 = 0
 rdr_addr_27: b27 - h27_2 = 0
 tail_sync_27_2: - a2 + t27_2 = 0
 tail_sync_27_4: - a4 + t27_4 = 0
 tail_req_27: - b27 + t27_4 >= 0
 head_hidden_28: a2 - h28_2 = 0
 rdr_addr_28: b28 - h28_2 = 0
 tail_sync_28_2: - a2 + t28_2 = 0
 tail_sync_28_4: - a4 + t28_4 = 0
 tail_sync_28_9: - a9 + t28_9 = 0
 tail_req_28: - b28 + t28_4 + t28_9 >= 0
 head_hidden_28: a2 - h28_2 = 0
 rdr_addr_28: b3 - h28_2 = 0
 tail_sync_28_2: - a2 + t28_2 = 0
 tail_sync_28_6: - a6 + t28_6 = 0
 tail_sync_28_0: - a0 + t28_0 = 0
 tail_req_28: - b3 + t28_6 + t28_0 >= 0
 head_hidden_29: a2 - h29_2 = 0
 rdr_addr_29: b29 - h29_2 = 0
 tail_sync_29_2: - a2 + t29_2 = 0
 tail_sync_29_6: - a6 + t29_6 = 0
 tail_sync_29_8: - a8 + t29_8 = 0
 tail_req_29: - b29 + t29_6 + t29_8 >= 0
 head_hidden_29: a2 - h29_2 = 0
 rdr_addr_29: b14 - h29_2 = 0
 tail_sync_29_1: - a1 + t29_1 = 0
 tail_sync_29_2: - a2 + t29_2 = 0
 tail_sync_29_4: - a4 + t29_4 = 0
 tail_req_29: - b14 + t29_1 + t29_4 >= 0
 head_hidden_30: a2 - h30_2 = 0
 rdr_addr_30: b30 - h30_2 = 0
 tail_sync_30_2: - a2 + t30_2 = 0
 tail_sync_30_5: - a5 + t30_5 = 0
 tail_sync_30_4: - a4 + t30_4 = 0
 tail_req_30: - b30 + t30_5 + t30_4 >= 0
 head_hidden_31: a2 - h31_2 = 0
 rdr_addr_31: b31 - h31_2 = 0
 tail_sync_31_2: - a2 + t31_2 = 0
 tail_sync_31_5: - a5 + t31_5 = 0
 tail_req_31: - b31 + t31_5 >= 0
 head_hidden_32: a2 - h32_2 = 0
 rdr_addr_32: b32 - h32_2 = 0
 tail_sync_32_3: - a3 + t32_3 = 0
 tail_sync_32_2: - a2 + t32_2 = 0
 tail_sync_32_8: - a8 + t32_8 = 0
 tail_req_32: - b32 + t32_3 + t32_8 >= 0
 head_hidden_32: a2 - h32_2 = 0
 rdr_addr_32: b5 - h32_2 = 0
 tail_sync_32_2: - a2 + t32_2 = 0
 tail_sync_32_5: - a5 + t32_5 = 0
 tail_sync_32_0: - a0 + t32_0 = 0
 tail_req_32: - b5 + t32_5 + t32_0 >= 0
 head_hidden_33: a2 - h33_2 = 0
 rdr_addr_33: b33 - h33_2 = 0
 tail_sync_33_2: - a2 + t33_2 = 0
 tail_sync_33_10: - a10 + t33_10 = 0
 tail_req_33: - b33 + t33_10 >= 0
 head_hidden_33: a2 - h33_2 = 0
 rdr_addr_33: b18 - h33_2 = 0
 tail_sync_33_1: - a1 + t33_1 = 0
 tail_sync_33_2: - a2 + t33_2 = 0
 tail_sync_33_8: - a8 + t33_8 = 0
 tail_req_33: - b18 + t33_1 + t33_8 >= 0
 head_hidden_34: a2 - h34_2 = 0
 rdr_addr_34: b34 - h34_2 = 0
 tail_sync_34_2: - a2 + t34_2 = 0
 tail_sync_34_10: - a10 + t34_10 = 0
 tail_sync_34_4: - a4 + t34_4 = 0
 tail_req_34: - b34 + t34_10 + t34_4 >= 0
 head_hidden_35: a2 - h35_2 = 0
 rdr_addr_35: b35 - h35_2 = 0
 tail_sync_35_2: - a2 + t35_2 = 0
 tail_sync_35_5: - a5 + t35_5 = 0
 tail_sync_35_8: - a8 + t35_8 = 0
 tail_req_35: - b35 + t35_5 + t35_8 >= 0
 head_hidden_36: a2 - h36_2 = 0
 rdr_addr_36: b36 - h36_2 = 0
 tail_sync_36_2: - a2 + t36_2 = 0
 tail_sync_36_9: - a9 + t36_9 = 0
 tail_req_36: - b36 + t36_9 >= 0
 head_hidden_37: a2 - h37_2 = 0
 rdr_addr_37: b37 - h37_2 = 0
 tail_sync_37_3: - a3 + t37_3 = 0
 tail_sync_37_2: - a2 + t37_2 = 0
 tail_sync_37_4: - a4 + t37_4 = 0
 tail_req_37: - b37 + t37_3 + t37_4 >= 0
 head_hidden_37: a2 - h37_2 = 0
 rdr_addr_37: b21 - h37_2 = 0
 tail_sync_37_1: - a1 + t37_1 = 0
 tail_sync_37_2: - a2 + t37_2 = 0
 tail_req_37: - b21 + t37_1 >= 0
 head_hidden_37: a3 - h37_3 = 0
 rdr_addr_37: b1 - h37_3 = 0
 tail_sync_37_3: - a3 + t37_3 = 0
 tail_sync_37_2: - a2 + t37_2 = 0
 tail_sync_37_0: - a0 + t37_0 = 0
 tail_req_37: - b1 + t37_2 + t37_0 >= 0
 head_hidden_37: a3 - h37_3 = 0
 rdr_addr_37: b23 - h37_3 = 0
 tail_sync_37_3: - a3 + t37_3 = 0
 tail_sync_37_2: - a2 + t37_2 = 0
 tail_req_37: - b23 + t37_2 >= 0
 head_hidden_38: a3 - h38_3 = 0
 rdr_addr_38: b38 - h38_3 = 0
 tail_sync_38_3: - a3 + t38_3 = 0
 tail_sync_38_9: - a9 + t38_9 = 0
 tail_req_38: - b38 + t38_9 >= 0
 head_hidden_39: a3 - h39_3 = 0
 rdr_addr_39: b39 - h39_3 = 0
 tail_sync_39_3: - a3 + t39_3 = 0
 tail_sync_39_5: - a5 + t39_5 = 0
 tail_req_39: - b39 + t39_5 >= 0
 head_hidden_40: a3 - h40_3 = 0
 rdr_addr_40: b40 - h40_3 = 0
 tail_sync_40_3: - a3 + t40_3 = 0
 tail_sync_40_4: - a4 + t40_4 = 0
 tail_sync_40_8: - a8 + t40_8 = 0
 tail_req_40: - b40 + t40_4 + t40_8 >= 0
 head_hidden_41: a3 - h41_3 = 0
 rdr_addr_41: b41 - h41_3 = 0
 tail_sync_41_3: - a3 + t41_3 = 0
 tail_sync_41_4: - a4 + t41_4 = 0
 tail_req_41: - b41 + t41_4 >= 0
 head_hidden_42: a3 - h42_3 = 0
 rdr_addr_42: b42 - h42_3 = 0
 tail_sync_42_3: - a3 + t42_3 = 0
 tail_sync_42_8: - a8 + t42_8 = 0
 tail_sync_42_9: - a9 + t42_9 = 0
 tail_req_42: - b42 + t42_8 + t42_9 >= 0
 head_hidden_43: a3 - h43_3 = 0
 rdr_addr_43: b43 - h43_3 = 0
 tail_sync_43_11: - a11 + t43_11 = 0
 tail_sync_43_3: - a3 + t43_3 = 0
 tail_sync_43_9: - a9 + t43_9 = 0
 tail_req_43: - b43 + t43_11 + t43_9 >= 0
 head_hidden_43: a3 - h43_3 = 0
 rdr_addr_43: b4 - h43_3 = 0
 tail_sync_43_3: - a3 + t43_3 = 0
 tail_sync_43_4: - a4 + t43_4 = 0
 tail_sync_43_0: - a0 + t43_0 = 0
 tail_req_43: - b4 + t43_4 + t43_0 >= 0
 head_hidden_43: a3 - h43_3 = 0
 rdr_addr_43: b32 - h43_3 = 0
 tail_sync_43_3: - a3 + t43_3 = 0
 tail_sync_43_2: - a2 + t43_2 = 0
 tail_sync_43_8: - a8 + t43_8 = 0
 tail_req_43: - b32 + t43_2 + t43_8 >= 0
 head_hidden_44: a3 - h44_3 = 0
 rdr_addr_44: b44 - h44_3 = 0
 tail_sync_44_3: - a3 + t44_3 = 0
 tail_sync_44_12: - a12 + t44_12 = 0
 tail_req_44: - b44 + t44_12 >= 0
 head_hidden_44: a3 - h44_3 = 0
 rdr_addr_44: b20 - h44_3 = 0
 tail_sync_44_3: - a3 + t44_3 = 0
 tail_sync_44_1: - a1 + t44_1 = 0
 tail_req_44: - b20 + t44_1 >= 0
 head_hidden_45: a3 - h45_3 = 0
 rdr_addr_45: b45 - h45_3 = 0
 tail_sync_45_3: - a3 + t45_3 = 0
 tail_sync_45_6: - a6 + t45_6 = 0
 tail_req_45: - b45 + t45_6 >= 0
 head_hidden_45: a3 - h45_3 = 0
 rdr_addr_45: b37 - h45_3 = 0
 tail_sync_45_3: - a3 + t45_3 = 0
 tail_sync_45_2: - a2 + t45_2 = 0
 tail_sync_45_4: - a4 + t45_4 = 0
 tail_req_45: - b37 + t45_2 + t45_4 >= 0
 head_hidden_46: a3 - h46_3 = 0
 rdr_addr_46: b46 - h46_3 = 0
 tail_sync_46_3: - a3 + t46_3 = 0
 tail_sync_46_10: - a10 + t46_10 = 0
 tail_req_46: - b46 + t46_10 >= 0
 head_hidden_46: a4 - h46_4 = 0
 rdr_addr_46: b9 - h46_4 = 0
 tail_sync_46_1: - a1 + t46_1 = 0
 tail_sync_46_4: - a4 + t46_4 = 0
 tail_sync_46_8: - a8 + t46_8 = 0
 tail_req_46: - b9 + t46_1 + t46_8 >= 0
 head_hidden_46: a4 - h46_4 = 0
 rdr_addr_46: b22 - h46_4 = 0
 tail_sync_46_2: - a2 + t46_2 = 0
 tail_sync_46_4: - a4 + t46_4 = 0
 tail_sync_46_12: - a12 + t46_12 = 0
 tail_req_46: - b22 + t46_2 + t46_12 >= 0
 head_hidden_46: a4 - h46_4 = 0
 rdr_addr_46: b24 - h46_4 = 0
 tail_sync_46_2: - a2 + t46_2 = 0
 tail_sync_46_6: - a6 + t46_6 = 0
 tail_sync_46_4: - a4 + t46_4 = 0
 tail_req_46: - b24 + t46_2 + t46_6 >= 0
 head_hidden_46: a4 - h46_4 = 0
 rdr_addr_46: b2 - h46_4 = 0
 tail_sync_46_4: - a4 + t46_4 = 0
 tail_sync_46_5: - a5 + t46_5 = 0
 tail_sync_46_0: - a0 + t46_0 = 0
 tail_req_46: - b2 + t46_5 + t46_0 >= 0
 head_hidden_46: a4 - h46_4 = 0
 rdr_addr_46: b40 - h46_4 = 0
 tail_sync_46_3: - a3 + t46_3 = 0
 tail_sync_46_4: - a4 + t46_4 = 0
 tail_sync_46_8: - a8 + t46_8 = 0
 tail_req_46: - b40 + t46_3 + t46_8 >= 0
 head_hidden_46: a4 - h46_4 = 0
 rdr_addr_46: b27 - h46_4 = 0
 tail_sync_46_2: - a2 + t46_2 = 0
 tail_sync_46_4: - a4 + t46_4 = 0
 tail_req_46: - b27 + t46_2 >= 0
 head_hidden_46: a4 - h46_4 = 0
 rdr_addr_46: b28 - h46_4 = 0
 tail_sync_46_2: - a2 + t46_2 = 0
 tail_sync_46_4: - a4 + t46_4 = 0
 tail_sync_46_9: - a9 + t46_9 = 0
 tail_req_46: - b28 + t46_2 + t46_9 >= 0
 head_hidden_46: a4 - h46_4 = 0
 rdr_addr_46: b14 - h46_4 = 0
 tail_sync_46_1: - a1 + t46_1 = 0
 tail_sync_46_2: - a2 + t46_2 = 0
 tail_sync_46_4: - a4 + t46_4 = 0
 tail_req_46: - b14 + t46_1 + t46_2 >= 0
 head_hidden_46: a4 - h46_4 = 0
 rdr_addr_46: b41 - h46_4 = 0
 tail_sync_46_3: - a3 + t46_3 = 0
 tail_sync_46_4: - a4 + t46_4 = 0
 tail_req_46: - b41 + t46_3 >= 0
 head_hidden_46: a4 - h46_4 = 0
 rdr_addr_46: b4 - h46_4 = 0
 tail_sync_46_3: - a3 + t46_3 = 0
 tail_sync_46_4: - a4 + t46_4 = 0
 tail_sync_46_0: - a0 + t46_0 = 0
 tail_req_46: - b4 + t46_3 + t46_0 >= 0
 head_hidden_46: a4 - h46_4 = 0
 rdr_addr_46: b30 - h46_4 = 0
 tail_sync_46_2: - a2 + t46_2 = 0
 tail_sync_46_5: - a5 + t46_5 = 0
 tail_sync_46_4: - a4 + t46_4 = 0
 tail_req_46: - b30 + t46_2 + t46_5 >= 0
 head_hidden_46: a4 - h46_4 = 0
 rdr_addr_46: b16 - h46_4 = 0
 tail_sync_46_1: - a1 + t46_1 = 0
 tail_sync_46_4: - a4 + t46_4 = 0
 tail_req_46: - b16 + t46_1 >= 0
 head_hidden_47: a4 - h47_4 = 0
 rdr_addr_47: b47 - h47_4 = 0
 tail_sync_47_4: - a4 + t47_4 = 0
 tail_sync_47_9: - a9 + t47_9 = 0
 tail_req_47: - b47 + t47_9 >= 0
 head_hidden_48: a4 - h48_4 = 0
 rdr_addr_48: b48 - h48_4 = 0
 tail_sync_48_5: - a5 + t48_5 = 0
 tail_sync_48_4: - a4 + t48_4 = 0
 tail_sync_48_8: - a8 + t48_8 = 0
 tail_req_48: - b48 + t48_5 + t48_8 >= 0
 head_hidden_49: a4 - h49_4 = 0
 rdr_addr_49: b49 - h49_4 = 0
 tail_sync_49_10: - a10 + t49_10 = 0
 tail_sync_49_4: - a4 + t49_4 = 0
 tail_req_49: - b49 + t49_10 >= 0
 head_hidden_49: a4 - h49_4 = 0
 rdr_addr_49: b34 - h49_4 = 0
 tail_sync_49_2: - a2 + t49_2 = 0
 tail_sync_49_10: - a10 + t49_10 = 0
 tail_sync_49_4: - a4 + t49_4 = 0
 tail_req_49: - b34 + t49_2 + t49_10 >= 0
 head_hidden_50: a4 - h50_4 = 0
 rdr_addr_50: b50 - h50_4 = 0
 tail_sync_50_6: - a6 + t50_6 = 0
 tail_sync_50_4: - a4 + t50_4 = 0
 tail_req_50: - b50 + t50_6 >= 0
 head_hidden_51: a4 - h51_4 = 0
 rdr_addr_51: b51 - h51_4 = 0
 tail_sync_51_4: - a4 + t51_4 = 0
 tail_sync_51_12: - a12 + t51_12 = 0
 tail_req_51: - b51 + t51_12 >= 0
 head_hidden_51: a4 - h51_4 = 0
 rdr_addr_51: b37 - h51_4 = 0
 tail_sync_51_3: - a3 + t51_3 = 0
 tail_sync_51_2: - a2 + t51_2 = 0
 tail_sync_51_4: - a4 + t51_4 = 0
 tail_req_51: - b37 + t51_3 + t51_2 >= 0
 head_hidden_52: a4 - h52_4 = 0
 rdr_addr_52: b52 - h52_4 = 0
 tail_sync_52_5: - a5 + t52_5 = 0
 tail_sync_52_4: - a4 + t52_4 = 0
 tail_req_52: - b52 + t52_5 >= 0
 head_hidden_52: a4 - h52_4 = 0
 rdr_addr_52: b7 - h52_4 = 0
 tail_sync_52_4: - a4 + t52_4 = 0
 tail_sync_52_6: - a6 + t52_6 = 0
 tail_sync_52_0: - a0 + t52_0 = 0
 tail_req_52: - b7 + t52_6 + t52_0 >= 0
 head_hidden_53: a4 - h53_4 = 0
 rdr_addr_53: b53 - h53_4 = 0
 tail_sync_53_6: - a6 + t53_6 = 0
 tail_sync_53_4: - a4 + t53_4 = 0
 tail_sync_53_8: - a8 + t53_8 = 0
 tail_req_53: - b53 + t53_6 + t53_8 >= 0
 head_hidden_53: a4 - h53_4 = 0
 rdr_addr_53: b8 - h53_4 = 0
 tail_sync_53_1: - a1 + t53_1 = 0
 tail_sync_53_4: - a4 + t53_4 = 0
 tail_sync_53_0: - a0 + t53_0 = 0
 tail_req_53: - b8 + t53_1 + t53_0 >= 0
 head_hidden_54: a5 - h54_5 = 0
 rdr_addr_54: b54 - h54_5 = 0
 tail_sync_54_5: - a5 + t54_5 = 0
 tail_sync_54_6: - a6 + t54_6 = 0
 tail_req_54: - b54 + t54_6 >= 0
 head_hidden_55: a5 - h55_5 = 0
 rdr_addr_55: b55 - h55_5 = 0
 tail_sync_55_5: - a5 + t55_5 = 0
 tail_sync_55_12: - a12 + t55_12 = 0
 tail_req_55: - b55 + t55_12 >= 0
 head_hidden_55: a5 - h55_5 = 0
 rdr_addr_55: b2 - h55_5 = 0
 tail_sync_55_4: - a4 + t55_4 = 0
 tail_sync_55_5: - a5 + t55_5 = 0
 tail_sync_55_0: - a0 + t55_0 = 0
 tail_req_55: - b2 + t55_4 + t55_0 >= 0
 head_hidden_55: a5 - h55_5 = 0
 rdr_addr_55: b39 - h55_5 = 0
 tail_sync_55_3: - a3 + t55_3 = 0
 tail_sync_55_5: - a5 + t55_5 = 0
 tail_req_55: - b39 + t55_3 >= 0
 head_hidden_55: a5 - h55_5 = 0
 rdr_addr_55: b12 - h55_5 = 0
 tail_sync_55_1: - a1 + t55_1 = 0
 tail_sync_55_5: - a5 + t55_5 = 0
 tail_req_55: - b12 + t55_1 >= 0
 head_hidden_56: a5 - h56_5 = 0
 rdr_addr_56: b56 - h56_5 = 0
 tail_sync_56_11: - a11 + t56_11 = 0
 tail_sync_56_5: - a5 + t56_5 = 0
 tail_sync_56_9: - a9 + t56_9 = 0
 tail_req_56: - b56 + t56_11 + t56_9 >= 0
 head_hidden_57: a5 - h57_5 = 0
 rdr_addr_57: b57 - h57_5 = 0
 tail_sync_57_5: - a5 + t57_5 = 0
 tail_sync_57_10: - a10 + t57_10 = 0
 tail_req_57: - b57 + t57_10 >= 0
 head_hidden_57: a5 - h57_5 = 0
 rdr_addr_57: b30 - h57_5 = 0
 tail_sync_57_2: - a2 + t57_2 = 0
 tail_sync_57_5: - a5 + t57_5 = 0
 tail_sync_57_4: - a4 + t57_4 = 0
 tail_req_57: - b30 + t57_2 + t57_4 >= 0
 head_hidden_57: a5 - h57_5 = 0
 rdr_addr_57: b31 - h57_5 = 0
 tail_sync_57_2: - a2 + t57_2 = 0
 tail_sync_57_5: - a5 + t57_5 = 0
 tail_req_57: - b31 + t57_2 >= 0
 head_hidden_57: a5 - h57_5 = 0
 rdr_addr_57: b5 - h57_5 = 0
 tail_sync_57_2: - a2 + t57_2 = 0
 tail_sync_57_5: - a5 + t57_5 = 0
 tail_sync_57_0: - a0 + t57_0 = 0
 tail_req_57: - b5 + t57_2 + t57_0 >= 0
 head_hidden_57: a5 - h57_5 = 0
 rdr_addr_57: b48 - h57_5 = 0
 tail_sync_57_5: - a5 + t57_5 = 0
 tail_sync_57_4: - a4 + t57_4 = 0
 tail_sync_57_8: - a8 + t57_8 = 0
 tail_req_57: - b48 + t57_4 + t57_8 >= 0
 head_hidden_58: a5 - h58_5 = 0
 rdr_addr_58: b58 - h58_5 = 0
 tail_sync_58_5: - a5 + t58_5 = 0
 tail_sync_58_9: - a9 + t58_9 = 0
 tail_req_58: - b58 + t58_9 >= 0
 head_hidden_58: a5 - h58_5 = 0
 rdr_addr_58: b35 - h58_5 = 0
 tail_sync_58_2: - a2 + t58_2 = 0
 tail_sync_58_5: - a5 + t58_5 = 0
 tail_sync_58_8: - a8 + t58_8 = 0
 tail_req_58: - b35 + t58_2 + t58_8 >= 0
 head_hidden_58: a5 - h58_5 = 0
 rdr_addr_58: b52 - h58_5 = 0
 tail_sync_58_5: - a5 + t58_5 = 0
 tail_sync_58_4: - a4 + t58_4 = 0
 tail_req_58: - b52 + t58_4 >= 0
 head_hidden_59: a5 - h59_5 = 0
 rdr_addr_59: b59 - h59_5 = 0
 tail_sync_59_5: - a5 + t59_5 = 0
 tail_sync_59_8: - a8 + t59_8 = 0
 tail_sync_59_9: - a9 + t59_9 = 0
 tail_req_59: - b59 + t59_8 + t59_9 >= 0
 head_hidden_59: a6 - h59_6 = 0
 rdr_addr_59: b54 - h59_6 = 0
 tail_sync_59_5: - a5 + t59_5 = 0
 tail_sync_59_6: - a6 + t59_6 = 0
 tail_req_59: - b54 + t59_5 >= 0
 head_hidden_59: a6 - h59_6 = 0
 rdr_addr_59: b24 - h59_6 = 0
 tail_sync_59_2: - a2 + t59_2 = 0
 tail_sync_59_6: - a6 + t59_6 = 0
 tail_sync_59_4: - a4 + t59_4 = 0
 tail_req_59: - b24 + t59_2 + t59_4 >= 0
 head_hidden_59: a6 - h59_6 = 0
 rdr_addr_59: b25 - h59_6 = 0
 tail_sync_59_2: - a2 + t59_2 = 0
 tail_sync_59_6: - a6 + t59_6 = 0
 tail_req_59: - b25 + t59_2 >= 0
 head_hidden_60: a6 - h60_6 = 0
 rdr_addr_60: b60 - h60_6 = 0
 tail_sync_60_10: - a10 + t60_10 = 0
 tail_sync_60_6: - a6 + t60_6 = 0
 tail_req_60: - b60 + t60_10 >= 0
 head_hidden_60: a6 - h60_6 = 0
 rdr_addr_60: b3 - h60_6 = 0
 tail_sync_60_2: - a2 + t60_2 = 0
 tail_sync_60_6: - a6 + t60_6 = 0
 tail_sync_60_0: - a0 + t60_0 = 0
 tail_req_60: - b3 + t60_2 + t60_0 >= 0
 head_hidden_61: a6 - h61_6 = 0
 rdr_addr_61: b61 - h61_6 = 0
 tail_sync_61_11: - a11 + t61_11 = 0
 tail_sync_61_6: - a6 + t61_6 = 0
 tail_sync_61_9: - a9 + t61_9 = 0
 tail_req_61: - b61 + t61_11 + t61_9 >= 0
 head_hidden_61: a6 - h61_6 = 0
 rdr_addr_61: b29 - h61_6 = 0
 tail_sync_61_2: - a2 + t61_2 = 0
 tail_sync_61_6: - a6 + t61_6 = 0
 tail_sync_61_8: - a8 + t61_8 = 0
 tail_req_61: - b29 + t61_2 + t61_8 >= 0
 head_hidden_62: a6 - h62_6 = 0
 rdr_addr_62: b62 - h62_6 = 0
 tail_sync_62_6: - a6 + t62_6 = 0
 tail_sync_62_9: - a9 + t62_9 = 0
 tail_req_62: - b62 + t62_9 >= 0
 head_hidden_62: a6 - h62_6 = 0
 rdr_addr_62: b13 - h62_6 = 0
 tail_sync_62_1: - a1 + t62_1 = 0
 tail_sync_62_6: - a6 + t62_6 = 0
 tail_req_62: - b13 + t62_1 >= 0
 head_hidden_63: a6 - h63_6 = 0
 rdr_addr_63: b63 - h63_6 = 0
 tail_sync_63_6: - a6 + t63_6 = 0
 tail_sync_63_12: - a12 + t63_12 = 0
 tail_req_63: - b63 + t63_12 >= 0
 head_hidden_64: a6 - h64_6 = 0
 rdr_addr_64: b64 - h64_6 = 0
 tail_sync_64_6: - a6 + t64_6 = 0
 tail_sync_64_8: - a8 + t64_8 = 0
 tail_sync_64_9: - a9 + t64_9 = 0
 tail_req_64: - b64 + t64_8 + t64_9 >= 0
 head_hidden_64: a6 - h64_6 = 0
 rdr_addr_64: b50 - h64_6 = 0
 tail_sync_64_6: - a6 + t64_6 = 0
 tail_sync_64_4: - a4 + t64_4 = 0
 tail_req_64: - b50 + t64_4 >= 0
 head_hidden_64: a6 - h64_6 = 0
 rdr_addr_64: b45 - h64_6 = 0
 tail_sync_64_3: - a3 + t64_3 = 0
 tail_sync_64_6: - a6 + t64_6 = 0
 tail_req_64: - b45 + t64_3 >= 0
 head_hidden_64: a6 - h64_6 = 0
 rdr_addr_64: b7 - h64_6 = 0
 tail_sync_64_4: - a4 + t64_4 = 0
 tail_sync_64_6: - a6 + t64_6 = 0
 tail_sync_64_0: - a0 + t64_0 = 0
 tail_req_64: - b7 + t64_4 + t64_0 >= 0
 head_hidden_64: a6 - h64_6 = 0
 rdr_addr_64: b53 - h64_6 = 0
 tail_sync_64_6: - a6 + t64_6 = 0
 tail_sync_64_4: - a4 + t64_4 = 0
 tail_sync_64_8: - a8 + t64_8 = 0
 tail_req_64: - b53 + t64_4 + t64_8 >= 0
 head_hidden_64: a7 - h64_7 = 0
 rdr_addr_64: b6 - h64_7 = 0
 tail_sync_64_0: - a0 + t64_0 = 0
 tail_sync_64_7: - a7 + t64_7 = 0
 tail_req_64: - b6 + t64_0 >= 0
 head_hidden_64: a8 - h64_8 = 0
 rdr_addr_64: b9 - h64_8 = 0
 tail_sync_64_1: - a1 + t64_1 = 0
 tail_sync_64_4: - a4 + t64_4 = 0
 tail_sync_64_8: - a8 + t64_8 = 0
 tail_req_64: - b9 + t64_1 + t64_4 >= 0
 head_hidden_64: a8 - h64_8 = 0
 rdr_addr_64: b40 - h64_8 = 0
 tail_sync_64_3: - a3 + t64_3 = 0
 tail_sync_64_4: - a4 + t64_4 = 0
 tail_sync_64_8: - a8 + t64_8 = 0
 tail_req_64: - b40 + t64_3 + t64_4 >= 0
 head_hidden_64: a8 - h64_8 = 0
 rdr_addr_64: b29 - h64_8 = 0
 tail_sync_64_2: - a2 + t64_2 = 0
 tail_sync_64_6: - a6 + t64_6 = 0
 tail_sync_64_8: - a8 + t64_8 = 0
 tail_req_64: - b29 + t64_2 + t64_6 >= 0
 head_hidden_64: a8 - h64_8 = 0
 rdr_addr_64: b42 - h64_8 = 0
 tail_sync_64_3: - a3 + t64_3 = 0
 tail_sync_64_8: - a8 + t64_8 = 0
 tail_sync_64_9: - a9 + t64_9 = 0
 tail_req_64: - b42 + t64_3 + t64_9 >= 0
 head_hidden_64: a8 - h64_8 = 0
 rdr_addr_64: b32 - h64_8 = 0
 tail_sync_64_3: - a3 + t64_3 = 0
 tail_sync_64_2: - a2 + t64_2 = 0
 tail_sync_64_8: - a8 + t64_8 = 0
 tail_req_64: - b32 + t64_3 + t64_2 >= 0
 head_hidden_64: a8 - h64_8 = 0
 rdr_addr_64: b17 - h64_8 = 0
 tail_sync_64_1: - a1 + t64_1 = 0
 tail_sync_64_8: - a8 + t64_8 = 0
 tail_sync_64_9: - a9 + t64_9 = 0
 tail_req_64: - b17 + t64_1 + t64_9 >= 0
 head_hidden_64: a8 - h64_8 = 0
 rdr_addr_64: b48 - h64_8 = 0
 tail_sync_64_5: - a5 + t64_5 = 0
 tail_sync_64_4: - a4 + t64_4 = 0
 tail_sync_64_8: - a8 + t64_8 = 0
 tail_req_64: - b48 + t64_5 + t64_4 >= 0
 head_hidden_64: a8 - h64_8 = 0
 rdr_addr_64: b64 - h64_8 = 0
 tail_sync_64_6: - a6 + t64_6 = 0
 tail_sync_64_8: - a8 + t64_8 = 0
 tail_sync_64_9: - a9 + t64_9 = 0
 tail_req_64: - b64 + t64_6 + t64_9 >= 0
 head_hidden_64: a8 - h64_8 = 0
 rdr_addr_64: b18 - h64_8 = 0
 tail_sync_64_1: - a1 + t64_1 = 0
 tail_sync_64_2: - a2 + t64_2 = 0
 tail_sync_64_8: - a8 + t64_8 = 0
 tail_req_64: - b18 + t64_1 + t64_2 >= 0
 head_hidden_65: a8 - h65_8 = 0
 rdr_addr_65: b65 - h65_8 = 0
 tail_sync_65_11: - a11 + t65_11 = 0
 tail_sync_65_8: - a8 + t65_8 = 0
 tail_req_65: - b65 + t65_11 >= 0
 head_hidden_65: a8 - h65_8 = 0
 rdr_addr_65: b35 - h65_8 = 0
 tail_sync_65_2: - a2 + t65_2 = 0
 tail_sync_65_5: - a5 + t65_5 = 0
 tail_sync_65_8: - a8 + t65_8 = 0
 tail_req_65: - b35 + t65_2 + t65_5 >= 0
 head_hidden_66: a8 - h66_8 = 0
 rdr_addr_66: b66 - h66_8 = 0
 tail_sync_66_13: - a13 + t66_13 = 0
 tail_sync_66_8: - a8 + t66_8 = 0
 tail_req_66: - b66 + t66_13 >= 0
 head_hidden_66: a8 - h66_8 = 0
 rdr_addr_66: b53 - h66_8 = 0
 tail_sync_66_6: - a6 + t66_6 = 0
 tail_sync_66_4: - a4 + t66_4 = 0
 tail_sync_66_8: - a8 + t66_8 = 0
 tail_req_66: - b53 + t66_6 + t66_4 >= 0
 head_hidden_66: a8 - h66_8 = 0
 rdr_addr_66: b59 - h66_8 = 0
 tail_sync_66_5: - a5 + t66_5 = 0
 tail_sync_66_8: - a8 + t66_8 = 0
 tail_sync_66_9: - a9 + t66_9 = 0
 tail_req_66: - b59 + t66_5 + t66_9 >= 0
 head_hidden_66: a9 - h66_9 = 0
 rdr_addr_66: b10 - h66_9 = 0
 tail_sync_66_1: - a1 + t66_1 = 0
 tail_sync_66_9: - a9 + t66_9 = 0
 tail_req_66: - b10 + t66_1 >= 0
 head_hidden_66: a9 - h66_9 = 0
 rdr_addr_66: b38 - h66_9 = 0
 tail_sync_66_3: - a3 + t66_3 = 0
 tail_sync_66_9: - a9 + t66_9 = 0
 tail_req_66: - b38 + t66_3 >= 0
 head_hidden_66: a9 - h66_9 = 0
 rdr_addr_66: b28 - h66_9 = 0
 tail_sync_66_2: - a2 + t66_2 = 0
 tail_sync_66_4: - a4 + t66_4 = 0
 tail_sync_66_9: - a9 + t66_9 = 0
 tail_req_66: - b28 + t66_2 + t66_4 >= 0
 head_hidden_66: a9 - h66_9 = 0
 rdr_addr_66: b61 - h66_9 = 0
 tail_sync_66_11: - a11 + t66_11 = 0
 tail_sync_66_6: - a6 + t66_6 = 0
 tail_sync_66_9: - a9 + t66_9 = 0
 tail_req_66: - b61 + t66_11 + t66_6 >= 0
 head_hidden_66: a9 - h66_9 = 0
 rdr_addr_66: b62 - h66_9 = 0
 tail_sync_66_6: - a6 + t66_6 = 0
 tail_sync_66_9: - a9 + t66_9 = 0
 tail_req_66: - b62 + t66_6 >= 0
 head_hidden_66: a9 - h66_9 = 0
 rdr_addr_66: b56 - h66_9 = 0
 tail_sync_66_11: - a11 + t66_11 = 0
 tail_sync_66_5: - a5 + t66_5 = 0
 tail_sync_66_9: - a9 + t66_9 = 0
 tail_req_66: - b56 + t66_11 + t66_5 >= 0
 head_hidden_67: a9 - h67_9 = 0
 rdr_addr_67: b67 - h67_9 = 0
 tail_sync_67_10: - a10 + t67_10 = 0
 tail_sync_67_9: - a9 + t67_9 = 0
 tail_req_67: - b67 + t67_10 >= 0
 head_hidden_67: a9 - h67_9 = 0
 rdr_addr_67: b42 - h67_9 = 0
 tail_sync_67_3: - a3 + t67_3 = 0
 tail_sync_67_8: - a8 + t67_8 = 0
 tail_sync_67_9: - a9 + t67_9 = 0
 tail_req_67: - b42 + t67_3 + t67_8 >= 0
 head_hidden_67: a9 - h67_9 = 0
 rdr_addr_67: b43 - h67_9 = 0
 tail_sync_67_11: - a11 + t67_11 = 0
 tail_sync_67_3: - a3 + t67_3 = 0
 tail_sync_67_9: - a9 + t67_9 = 0
 tail_req_67: - b43 + t67_11 + t67_3 >= 0
 head_hidden_67: a9 - h67_9 = 0
 rdr_addr_67: b15 - h67_9 = 0
 tail_sync_67_11: - a11 + t67_11 = 0
 tail_sync_67_9: - a9 + t67_9 = 0
 tail_sync_67_1: - a1 + t67_1 = 0
 tail_req_67: - b15 + t67_11 + t67_1 >= 0
 head_hidden_67: a9 - h67_9 = 0
 rdr_addr_67: b47 - h67_9 = 0
 tail_sync_67_4: - a4 + t67_4 = 0
 tail_sync_67_9: - a9 + t67_9 = 0
 tail_req_67: - b47 + t67_4 >= 0
 head_hidden_67: a9 - h67_9 = 0
 rdr_addr_67: b17 - h67_9 = 0
 tail_sync_67_1: - a1 + t67_1 = 0
 tail_sync_67_8: - a8 + t67_8 = 0
 tail_sync_67_9: - a9 + t67_9 = 0
 tail_req_67: - b17 + t67_1 + t67_8 >= 0
 head_hidden_67: a9 - h67_9 = 0
 rdr_addr_67: b58 - h67_9 = 0
 tail_sync_67_5: - a5 + t67_5 = 0
 tail_sync_67_9: - a9 + t67_9 = 0
 tail_req_67: - b58 + t67_5 >= 0
 head_hidden_67: a9 - h67_9 = 0
 rdr_addr_67: b64 - h67_9 = 0
 tail_sync_67_6: - a6 + t67_6 = 0
 tail_sync_67_8: - a8 + t67_8 = 0
 tail_sync_67_9: - a9 + t67_9 = 0
 tail_req_67: - b64 + t67_6 + t67_8 >= 0
 head_hidden_68: a9 - h68_9 = 0
 rdr_addr_68: b68 - h68_9 = 0
 tail_sync_68_12: - a12 + t68_12 = 0
 tail_sync_68_9: - a9 + t68_9 = 0
 tail_req_68: - b68 + t68_12 >= 0
 head_hidden_68: a9 - h68_9 = 0
 rdr_addr_68: b36 - h68_9 = 0
 tail_sync_68_2: - a2 + t68_2 = 0
 tail_sync_68_9: - a9 + t68_9 = 0
 tail_req_68: - b36 + t68_2 >= 0
 head_hidden_68: a9 - h68_9 = 0
 rdr_addr_68: b59 - h68_9 = 0
 tail_sync_68_5: - a5 + t68_5 = 0
 tail_sync_68_8: - a8 + t68_8 = 0
 tail_sync_68_9: - a9 + t68_9 = 0
 tail_req_68: - b59 + t68_5 + t68_8 >= 0
 head_hidden_68: a10 - h68_10 = 0
 rdr_addr_68: b11 - h68_10 = 0
 tail_sync_68_1: - a1 + t68_1 = 0
 tail_sync_68_10: - a10 + t68_10 = 0
 tail_req_68: - b11 + t68_1 >= 0
 head_hidden_68: a10 - h68_10 = 0
 rdr_addr_68: b60 - h68_10 = 0
 tail_sync_68_10: - a10 + t68_10 = 0
 tail_sync_68_6: - a6 + t68_6 = 0
 tail_req_68: - b60 + t68_6 >= 0
 head_hidden_69: a10 - h69_10 = 0
 rdr_addr_69: b69 - h69_10 = 0
 tail_sync_69_10: - a10 + t69_10 = 0
 tail_sync_69_12: - a12 + t69_12 = 0
 tail_req_69: - b69 + t69_12 >= 0
 head_hidden_69: a10 - h69_10 = 0
 rdr_addr_69: b57 - h69_10 = 0
 tail_sync_69_5: - a5 + t69_5 = 0
 tail_sync_69_10: - a10 + t69_10 = 0
 tail_req_69: - b57 + t69_5 >= 0
 head_hidden_69: a10 - h69_10 = 0
 rdr_addr_69: b67 - h69_10 = 0
 tail_sync_69_10: - a10 + t69_10 = 0
 tail_sync_69_9: - a9 + t69_9 = 0
 tail_req_69: - b67 + t69_9 >= 0
 head_hidden_69: a10 - h69_10 = 0
 rdr_addr_69: b33 - h69_10 = 0
 tail_sync_69_2: - a2 + t69_2 = 0
 tail_sync_69_10: - a10 + t69_10 = 0
 tail_req_69: - b33 + t69_2 >= 0
 head_hidden_69: a10 - h69_10 = 0
 rdr_addr_69: b49 - h69_10 = 0
 tail_sync_69_10: - a10 + t69_10 = 0
 tail_sync_69_4: - a4 + t69_4 = 0
 tail_req_69: - b49 + t69_4 >= 0
 head_hidden_69: a10 - h69_10 = 0
 rdr_addr_69: b34 - h69_10 = 0
 tail_sync_69_2: - a2 + t69_2 = 0
 tail_sync_69_10: - a10 + t69_10 = 0
 tail_sync_69_4: - a4 + t69_4 = 0
 tail_req_69: - b34 + t69_2 + t69_4 >= 0
 head_hidden_69: a10 - h69_10 = 0
 rdr_addr_69: b46 - h69_10 = 0
 tail_sync_69_3: - a3 + t69_3 = 0
 tail_sync_69_10: - a10 + t69_10 = 0
 tail_req_69: - b46 + t69_3 >= 0
 head_hidden_70: a11 - h70_11 = 0
 rdr_addr_70: b70 - h70_11 = 0
 tail_sync_70_11: - a11 + t70_11 = 0
 tail_sync_70_13: - a13 + t70_13 = 0
 tail_req_70: - b70 + t70_13 >= 0
 head_hidden_70: a11 - h70_11 = 0
 rdr_addr_70: b61 - h70_11 = 0
 tail_sync_70_11: - a11 + t70_11 = 0
 tail_sync_70_6: - a6 + t70_6 = 0
 tail_sync_70_9: - a9 + t70_9 = 0
 tail_req_70: - b61 + t70_6 + t70_9 >= 0
 head_hidden_70: a11 - h70_11 = 0
 rdr_addr_70: b56 - h70_11 = 0
 tail_sync_70_11: - a11 + t70_11 = 0
 tail_sync_70_5: - a5 + t70_5 = 0
 tail_sync_70_9: - a9 + t70_9 = 0
 tail_req_70: - b56 + t70_5 + t70_9 >= 0
 head_hidden_70: a11 - h70_11 = 0
 rdr_addr_70: b43 - h70_11 = 0
 tail_sync_70_11: - a11 + t70_11 = 0
 tail_sync_70_3: - a3 + t70_3 = 0
 tail_sync_70_9: - a9 + t70_9 = 0
 tail_req_70: - b43 + t70_3 + t70_9 >= 0
 head_hidden_70: a11 - h70_11 = 0
 rdr_addr_70: b15 - h70_11 = 0
 tail_sync_70_11: - a11 + t70_11 = 0
 tail_sync_70_9: - a9 + t70_9 = 0
 tail_sync_70_1: - a1 + t70_1 = 0
 tail_req_70: - b15 + t70_9 + t70_1 >= 0
 head_hidden_70: a11 - h70_11 = 0
 rdr_addr_70: b65 - h70_11 = 0
 tail_sync_70_11: - a11 + t70_11 = 0
 tail_sync_70_8: - a8 + t70_8 = 0
 tail_req_70: - b65 + t70_8 >= 0
 head_hidden_70: a12 - h70_12 = 0
 rdr_addr_70: b22 - h70_12 = 0
 tail_sync_70_2: - a2 + t70_2 = 0
 tail_sync_70_4: - a4 + t70_4 = 0
 tail_sync_70_12: - a12 + t70_12 = 0
 tail_req_70: - b22 + t70_2 + t70_4 >= 0
 head_hidden_70: a12 - h70_12 = 0
 rdr_addr_70: b55 - h70_12 = 0
 tail_sync_70_5: - a5 + t70_5 = 0
 tail_sync_70_12: - a12 + t70_12 = 0
 tail_req_70: - b55 + t70_5 >= 0
 head_hidden_70: a12 - h70_12 = 0
 rdr_addr_70: b26 - h70_12 = 0
 tail_sync_70_2: - a2 + t70_2 = 0
 tail_sync_70_12: - a12 + t70_12 = 0
 tail_req_70: - b26 + t70_2 >= 0
 head_hidden_70: a12 - h70_12 = 0
 rdr_addr_70: b69 - h70_12 = 0
 tail_sync_70_10: - a10 + t70_10 = 0
 tail_sync_70_12: - a12 + t70_12 = 0
 tail_req_70: - b69 + t70_10 >= 0
 head_hidden_70: a12 - h70_12 = 0
 rdr_addr_70: b44 - h70_12 = 0
 tail_sync_70_3: - a3 + t70_3 = 0
 tail_sync_70_12: - a12 + t70_12 = 0
 tail_req_70: - b44 + t70_3 >= 0
 head_hidden_70: a12 - h70_12 = 0
 rdr_addr_70: b63 - h70_12 = 0
 tail_sync_70_6: - a6 + t70_6 = 0
 tail_sync_70_12: - a12 + t70_12 = 0
 tail_req_70: - b63 + t70_6 >= 0
 head_hidden_70: a12 - h70_12 = 0
 rdr_addr_70: b19 - h70_12 = 0
 tail_sync_70_1: - a1 + t70_1 = 0
 tail_sync_70_12: - a12 + t70_12 = 0
 tail_req_70: - b19 + t70_1 >= 0
 head_hidden_70: a12 - h70_12 = 0
 rdr_addr_70: b68 - h70_12 = 0
 tail_sync_70_12: - a12 + t70_12 = 0
 tail_sync_70_9: - a9 + t70_9 = 0
 tail_req_70: - b68 + t70_9 >= 0
 head_hidden_70: a12 - h70_12 = 0
 rdr_addr_70: b51 - h70_12 = 0
 tail_sync_70_4: - a4 + t70_4 = 0
 tail_sync_70_12: - a12 + t70_12 = 0
 tail_req_70: - b51 + t70_4 >= 0
 head_hidden_70: a13 - h70_13 = 0
 rdr_addr_70: b70 - h70_13 = 0
 tail_sync_70_11: - a11 + t70_11 = 0
 tail_sync_70_13: - a13 + t70_13 = 0
 tail_req_70: - b70 + t70_11 >= 0
 head_hidden_70: a13 - h70_13 = 0
 rdr_addr_70: b66 - h70_13 = 0
 tail_sync_70_13: - a13 + t70_13 = 0
 tail_sync_70_8: - a8 + t70_8 = 0
 tail_req_70: - b66 + t70_8 >= 0
Bounds
 a0 = 1
Binaries
 a0 b0 h0_0 a1 t0_1 a2 t0_2 t0_0 b1 h1_0 a3 t1_3 t1_2 t1_0 b2 h2_0 a4 t2_4
 a5 t2_5 t2_0 b3 h3_0 t3_2 a6 t3_6 t3_0 b4 h4_0 t4_3 t4_4 t4_0 b5 h5_0 t5_2
 t5_5 t5_0 b6 h6_0 t6_0 a7 t6_7 b7 h7_0 t7_4 t7_6 t7_0 b8 h8_0 t8_1 t8_4
 t8_0 h8_1 t8_1 t8_2 t8_0 b9 h9_1 t9_1 t9_4 a8 t9_8 b10 h10_1 t10_1 a9
 t10_9 b11 h11_1 t11_1 a10 t11_10 b12 h12_1 t12_1 t12_5 b13 h13_1 t13_1
 t13_6 b14 h14_1 t14_1 t14_2 t14_4 b15 h15_1 a11 t15_11 t15_9 t15_1 b16
 h16_1 t16_1 t16_4 b17 h17_1 t17_1 t17_8 t17_9 b18 h18_1 t18_1 t18_2 t18_8
 b19 h19_1 t19_1 a12 t19_12 b20 h20_1 t20_3 t20_1 b21 h21_1 t21_1 t21_2
 h21_1 t21_1 t21_4 t21_0 h21_2 t21_1 t21_2 t21_0 h21_2 t21_3 t21_2 t21_0
 b22 h22_2 t22_2 t22_4 t22_12 b23 h23_2 t23_3 t23_2 b24 h24_2 t24_2 t24_6
 t24_4 b25 h25_2 t25_2 t25_6 b26 h26_2 t26_2 t26_12 b27 h27_2 t27_2 t27_4
 b28 h28_2 t28_2 t28_4 t28_9 h28_2 t28_2 t28_6 t28_0 b29 h29_2 t29_2 t29_6
 t29_8 h29_2 t29_1 t29_2 t29_4 b30 h30_2 t30_2 t30_5 t30_4 b31 h31_2 t31_2
 t31_5 b32 h32_2 t32_3 t32_2 t32_8 h32_2 t32_2 t32_5 t32_0 b33 h33_2 t33_2
 t33_10 h33_2 t33_1 t33_2 t33_8 b34 h34_2 t34_2 t34_10 t34_4 b35 h35_2
 t35_2 t35_5 t35_8 b36 h36_2 t36_2 t36_9 b37 h37_2 t37_3 t37_2 t37_4 h37_2
 t37_1 t37_2 h37_3 t37_3 t37_2 t37_0 h37_3 t37_3 t37_2 b38 h38_3 t38_3
 t38_9 b39 h39_3 t39_3 t39_5 b40 h40_3 t40_3 t40_4 t40_8 b41 h41_3 t41_3
 t41_4 b42 h42_3 t42_3 t42_8 t42_9 b43 h43_3 t43_11 t43_3 t43_9 h43_3 t43_3
 t43_4 t43_0 h43_3 t43_3 t43_2 t43_8 b44 h44_3 t44_3 t44_12 h44_3 t44_3
 t44_1 b45 h45_3 t45_3 t45_6 h45_3 t45_3 t45_2 t45_4 b46 h46_3 t46_3 t46_10
 h46_4 t46_1 t46_4 t46_8 h46_4 t46_2 t46_4 t46_12 h46_4 t46_2 t46_6 t46_4
 h46_4 t46_4 t46_5 t46_0 h46_4 t46_3 t46_4 t46_8 h46_4 t46_2 t46_4 h46_4
 t46_2 t46_4 t46_9 h46_4 t46_1 t46_2 t46_4 h46_4 t46_3 t46_4 h46_4 t46_3
 t46_4 t46_0 h46_4 t46_2 t46_5 t46_4 h46_4 t46_1 t46_4 b47 h47_4 t47_4
 t47_9 b48 h48_4 t48_5 t48_4 t48_8 b49 h49_4 t49_10 t49_4 h49_4 t49_2
 t49_10 t49_4 b50 h50_4 t50_6 t50_4 b51 h51_4 t51_4 t51_12 h51_4 t51_3
 t51_2 t51_4 b52 h52_4 t52_5 t52_4 h52_4 t52_4 t52_6 t52_0 b53 h53_4 t53_6
 t53_4 t53_8 h53_4 t53_1 t53_4 t53_0 b54 h54_5 t54_5 t54_6 b55 h55_5 t55_5
 t55_12 h55_5 t55_4 t55_5 t55_0 h55_5 t55_3 t55_5 h55_5 t55_1 t55_5 b56
 h56_5 t56_11 t56_5 t56_9 b57 h57_5 t57_5 t57_10 h57_5 t57_2 t57_5 t57_4
 h57_5 t57_2 t57_5 h57_5 t57_2 t57_5 t57_0 h57_5 t57_5 t57_4 t57_8 b58
 h58_5 t58_5 t58_9 h58_5 t58_2 t58_5 t58_8 h58_5 t58_5 t58_4 b59 h59_5
 t59_5 t59_8 t59_9 h59_6 t59_5 t59_6 h59_6 t59_2 t59_6 t59_4 h59_6 t59_2
 t59_6 b60 h60_6 t60_10 t60_6 h60_6 t60_2 t60_6 t60_0 b61 h61_6 t61_11
 t61_6 t61_9 h61_6 t61_2 t61_6 t61_8 b62 h62_6 t62_6 t62_9 h62_6 t62_1
 t62_6 b63 h63_6 t63_6 t63_12 b64 h64_6 t64_6 t64_8 t64_9 h64_6 t64_6 t64_4
 h64_6 t64_3 t64_6 h64_6 t64_4 t64_6 t64_0 h64_6 t64_6 t64_4 t64_8 h64_7
 t64_0 t64_7 h64_8 t64_1 t64_4 t64_8 h64_8 t64_3 t64_4 t64_8 h64_8 t64_2
 t64_6 t64_8 h64_8 t64_3 t64_8 t64_9 h64_8 t64_3 t64_2 t64_8 h64_8 t64_1
 t64_8 t64_9 h64_8 t64_5 t64_4 t64_8 h64_8 t64_6 t64_8 t64_9 h64_8 t64_1
 t64_2 t64_8 b65 h65_8 t65_11 t65_8 h65_8 t65_2 t65_5 t65_8 b66 h66_8 a13
 t66_13 t66_8 h66_8 t66_6 t66_4 t66_8 h66_8 t66_5 t66_8 t66_9 h66_9 t66_1
 t66_9 h66_9 t66_3 t66_9 h66_9 t66_2 t66_4 t66_9 h66_9 t66_11 t66_6 t66_9
 h66_9 t66_6 t66_9 h66_9 t66_11 t66_5 t66_9 b67 h67_9 t67_10 t67_9 h67_9
 t67_3 t67_8 t67_9 h67_9 t67_11 t67_3 t67_9 h67_9 t67_11 t67_9 t67_1 h67_9
 t67_4 t67_9 h67_9 t67_1 t67_8 t67_9 h67_9 t67_5 t67_9 h67_9 t67_6 t67_8
 t67_9 b68 h68_9 t68_12 t68_9 h68_9 t68_2 t68_9 h68_9 t68_5 t68_8 t68_9
 h68_10 t68_1 t68_10 h68_10 t68_10 t68_6 b69 h69_10 t69_10 t69_12 h69_10
 t69_5 t69_10 h69_10 t69_10 t69_9 h69_10 t69_2 t69_10 h69_10 t69_10 t69_4
 h69_10 t69_2 t69_10 t69_4 h69_10 t69_3 t69_10 b70 h70_11 t70_11 t70_13
 h70_11 t70_11 t70_6 t70_9 h70_11 t70_11 t70_5 t70_9 h70_11 t70_11 t70_3
 t70_9 h70_11 t70_11 t70_9 t70_1 h70_11 t70_11 t70_8 h70_12 t70_2 t70_4
 t70_12 h70_12 t70_5 t70_12 h70_12 t70_2 t70_12 h70_12 t70_10 t70_12 h70_12
 t70_3 t70_12 h70_12 t70_6 t70_12 h70_12 t70_1 t70_12 h70_12 t70_12 t70_9
 h70_12 t70_4 t70_12 h70_13 t70_11 t70_13 h70_13 t70_13 t70_8
End
